submitit INFO (2023-04-30 19:21:49,228) - Starting with JobEnvironment(job_id=27537, hostname=cpunode26, local_rank=3(5), node=0(1), global_rank=3(5))
submitit INFO (2023-04-30 19:21:49,228) - Loading pickle: /h/30/pashootan/Matrix-Mult-CP/src/../logs/2x2x2_6_Apr30_19:21:46/27537_submitted.pkl
 ! --------------------------------------------------- CP Optimizer 22.1.1.0 --
 ! Satisfiability problem - 72 variables, 184 constraints
 ! TimeLimit            = 7200
 ! Workers              = 8
 ! LogPeriod            = 10000000
 ! RandomSeed           = 6164
 ! Initial process time : 0.00s (0.00s extraction + 0.00s propagation)
 !  . Log search space  : 114.1 (before), 114.1 (after)
 !  . Memory usage      : 535.3 kB (before), 535.3 kB (after)
 ! Using parallel search with 8 workers.
 ! ----------------------------------------------------------------------------
 !               Branches  Non-fixed    W       Branch decision
                   10000k          6    8         1  = U4_1
                   10000k          5    4         1 != U5_1
                   10000k          8    7        -1 != W4_1
                   10000k          7    3         0  = W2_2
                   10000k          4    1   F     1  = V4_0
                   10000k          4    2         0  = W1_3
                   10000k          4    5   F     1 != V5_3
                   10000k          4    6         1 != W3_1
                   20000k          6    8        -1 != W5_1
                   20000k          4    1         0  = V5_3
                   20000k          5    4         1  = V1_2
                   20000k          4    2         1 != U2_3
                   20000k          4    6   F    -1 != U1_3
                   20000k          7    7   F    -1 != V3_1
                   20000k          4    5         1  = U4_1
                   20000k          7    3   F     0 != U2_1
                   30000k          6    8        -1 != U4_2
                   30000k          4    1         0 != U0_1
                   30000k          4    2   F    -1 != V5_1
                   30000k          4    6         1 != W5_0
 ! Time = 347.37s, Average fail depth = 14, Memory usage = 200.6 MB
 !               Branches  Non-fixed    W       Branch decision
                   30000k          5    4         1  = W3_3
                   30000k          4    5   F     0  = U1_1
                   30000k          5    3        -1 != V3_1
                   30000k          6    7   F     0  = U2_1
                   40000k          6    8         0  = W2_3
                   40000k          4    2         1 != W4_3
                   40000k          4    1   F    -1  = V1_3
                   40000k          4    6         0 != W5_1
                   40000k          5    5        -1 != W4_1
                   40000k         12    7   F    -1 != U4_0
                   40000k          6    3   F     0  = V2_1
                   40000k          5    4   F     0  = U5_0
                   50000k          5    8        -1  = V4_1
                   50000k          4    2   F    -1  = W5_3
                   50000k          4    1         1 != W2_3
                   50000k         10    7         1 != V0_0
                   50000k          7    3   F     1  = V2_3
                   50000k          5    5         1 != W1_1
                   50000k          4    6        -1  = W1_2
                   50000k          7    4   F    -1 != U0_0
 ! Time = 598.86s, Average fail depth = 14, Memory usage = 318.8 MB
 !               Branches  Non-fixed    W       Branch decision
                   60000k          6    8   F    -1 != W4_2
                   60000k          4    2        -1 != U3_3
                   60000k          5    1   F     1  = W0_3
                   60000k          8    7   F    -1  = W5_0
                   60000k          9    3        -1  = V2_3
                   60000k          5    5         0 != U0_0
                   60000k          5    4        -1  = U3_3
                   60000k          5    6        -1  = V0_1
                   70000k          6    8   F    -1 != U0_0
                   70000k          4    2        -1 != V4_0
                   70000k          5    1         0 != V1_1
                   70000k          6    7   F     1 != V3_0
                   70000k          8    3        -1 != V1_1
                   70000k          4    5         0 != U0_1
                   70000k          5    4   F     0  = W5_0
                   70000k          7    6   F     0 != V5_1
                   80000k          5    8         1  = W5_2
                   80000k          4    2         0  = U2_1
                   80000k          5    1   F     1 != U4_3
                   80000k          9    7         0  = U5_3
 ! Time = 949.57s, Average fail depth = 15, Memory usage = 456.6 MB
 !               Branches  Non-fixed    W       Branch decision
                   80000k          4    5        -1 != W2_3
                   80000k          5    4         0 != U5_1
                   80000k          7    3         0  = V4_2
                   80000k          4    6   F    -1 != W0_3
                   90000k          6    8   F    -1 != V4_0
                   90000k          4    2   F     1  = V5_2
                   90000k          4    1         0  = V2_1
                   90000k          4    5   F     1 != U5_0
                   90000k          7    3         0  = W5_3
                   90000k          9    7   F     0 != U2_3
                   90000k          5    4        -1  = W5_0
                   90000k          4    6   F     0 != V4_2
                     100M          6    8        -1 != V5_0
                     100M          4    2         0  = W0_3
                     100M          4    1   F    -1  = W2_3
                     100M          4    5        -1  = U0_0
                     100M          7    3         1  = V2_1
                     100M         10    7   F     0  = V2_2
                     100M          5    4   F     0  = W0_3
                     100M          4    6         0  = W4_0
 ! Time = 1223.92s, Average fail depth = 15, Memory usage = 580.1 MB
 !               Branches  Non-fixed    W       Branch decision
                     110M          7    8   F    -1  = W5_0
                     110M          4    1   F     0 != V4_2
                     110M          4    5         1  = W3_1
                     110M          8    7        -1  = U2_0
                     110M          8    3        -1 != V4_3
                     110M          5    2         0 != V4_3
                     110M          5    4         0 != U1_0
                     110M          4    6   F     1 != W4_0
                     120M          7    8         0  = V2_1
                     120M          7    7   F     0  = U3_3
                     120M          5    1   F    -1 != U3_1
                     120M          8    3         1  = W3_2
                     120M          4    5         1 != U3_3
                     120M          5    4   F     1 != U5_1
                     120M          8    2        -1  = V5_3
                     120M          4    6         1 != W0_1
                     130M          6    8         1 != V4_2
                     130M          5    1        -1 != W2_0
                     130M          8    3         0  = U4_3
                     130M          7    7   F     0 != U1_3
 ! Time = 1554.26s, Average fail depth = 15, Memory usage = 691.5 MB
 !               Branches  Non-fixed    W       Branch decision
                     130M          5    4        -1 != V3_2
                     130M          4    5         0 != V3_1
                     130M          9    2        -1  = V2_3
                     130M          4    6   F    -1 != V0_3
                     140M          5    8         0 != W0_1
                     140M          5    1         1  = U4_0
                     140M         13    7         0 != U0_1
                     140M          9    3        -1 != V5_3
                     140M          5    4   F     1  = V4_2
                     140M          4    5        -1 != U5_1
                     140M          7    2         0  = U3_2
                     140M          4    6         0 != U3_0
                     150M          5    8         1 != W4_1
                     150M          5    1   F     1  = W5_0
                     150M          9    7         0 != U1_0
                     150M          7    3        -1 != V1_2
                     150M          5    4        -1 != U4_1
                     150M          6    2         1  = V5_1
                     150M          4    5         0 != V4_3
                     150M          4    6   F    -1 != V0_2
 ! Time = 1837.71s, Average fail depth = 15, Memory usage = 787.0 MB
 !               Branches  Non-fixed    W       Branch decision
                     160M          4    1   F     1  = U0_1
                     160M          5    8   F    -1 != V2_0
                     160M         12    3         0 != U0_1
                     160M          8    7   F    -1  = V1_0
                     160M          4    2   F     1 != U2_0
                     160M          4    4   F     1 != W2_3
                     160M          4    6         0  = U4_3
                     160M          9    5         1 != U2_0
                     170M          5    1         0  = V0_2
                     170M          4    8            -
                     170M          8    3   F    -1 != V3_3
                     170M          4    4         1 != W4_1
                     170M          4    2   F    -1  = V2_1
                     170M          7    7         0 != U4_2
                     170M          5    6   F     0  = W5_1
                     170M          7    5   F    -1 != U4_1
                     180M          4    1   F    -1 != V2_3
                     180M          5    8         0 != W2_2
                     180M          6    3   F     1 != V4_2
                     180M          4    4   F     1 != V4_1
 ! Time = 2161.01s, Average fail depth = 15, Memory usage = 895.8 MB
 !               Branches  Non-fixed    W       Branch decision
                     180M          4    2   F    -1  = W0_3
                     180M          6    7   F     0 != V2_1
                     180M          4    6   F     0  = V3_1
                     180M         10    5   F    -1  = U2_1
                     190M          4    1         0 != U2_1
                     190M         11    3         0 != V2_2
                     190M          5    8         0  = W1_1
                     190M          5    2        -1  = W5_0
                     190M          4    4   F     1  = V3_2
                     190M          7    7   F    -1 != U5_1
                     190M          5    6   F     1  = W5_3
                     190M         10    5   F     0  = W4_0
                     200M          5    1        -1  = U1_2
                     200M          7    8            -
                     200M          4    2   F    -1 != V3_2
                     200M          8    3         1 != W0_2
                     200M          4    4   F    -1  = V4_1
                     200M          7    7   F    -1  = U5_0
                     200M          5    6   F     1  = W4_1
                     200M          9    5   F     0  = U2_2
 ! Time = 2472.79s, Average fail depth = 15, Memory usage = 997.1 MB
 !               Branches  Non-fixed    W       Branch decision
                     210M          4    1        -1 != W1_1
                     210M          4    4         1  = V4_3
                     210M          5    2         1 != U4_0
                     210M          5    8         0  = W4_1
                     210M          7    3   F     0  = U4_3
                     210M          6    7         0  = U5_0
                     210M          5    6         0  = U2_0
                     210M          4    5   F     1 != W5_3
                     220M          4    1   F    -1 != U5_3
                     220M          4    2        -1 != U0_1
                     220M          7    3        -1 != U0_3
                     220M          7    8   F    -1  = V5_3
                     220M          4    4         0 != V2_2
                     220M          7    7   F    -1 != U5_3
                     220M          5    6         0  = W4_2
                     220M          5    5   F    -1  = U5_3
                     230M          4    2        -1 != U3_2
                     230M          5    1   F    -1  = W1_3
                     230M         10    3   F     1  = U1_2
                     230M          4    8   F    -1 != V4_2
 ! Time = 2767.03s, Average fail depth = 15, Memory usage = 1.1 GB
 !               Branches  Non-fixed    W       Branch decision
                     230M          4    4   F     1  = W4_1
                     230M          7    7   F     0 != V2_2
                     230M          6    6         0  = U4_0
                     230M          4    5   F     1 != V2_1
                     240M          5    2         0 != W1_1
                     240M          5    1   F     1  = V5_2
                     240M          7    3   F     0  = U5_0
                     240M          6    8         0 != U4_2
                     240M          4    4         1 != V4_1
                     240M          9    7   F    -1  = U5_0
                     240M          5    6         0 != V2_2
                     240M          4    5        -1 != V1_2
                     250M          4    2        -1  = V5_3
                     250M          4    1        -1 != W3_0
                     250M          6    8   F     0 != W2_1
                     250M          4    4         1 != U0_3
                     250M         11    3        -1 != U2_3
                     250M         10    7         1  = W4_0
                     250M          5    6         0 != W4_1
                     250M          4    5   F    -1  = V3_2
 ! Time = 3084.09s, Average fail depth = 15, Memory usage = 1.2 GB
 !               Branches  Non-fixed    W       Branch decision
                     260M          6    2   F    -1 != U2_0
                     260M          5    1   F     1  = V2_2
                     260M          4    4   F     1 != U0_0
                     260M          6    8   F     0  = U0_3
                     260M          9    3        -1 != V0_3
                     260M         11    7   F     0  = V1_1
                     260M          6    6   F    -1 != U3_3
                     260M          4    5   F     1 != W1_0
                     270M          4    2   F     1 != V5_3
                     270M          8    3         1 != V4_0
                     270M          5    1   F    -1  = W5_3
                     270M          4    4   F    -1 != W3_1
                     270M          6    8   F     0 != V1_0
                     270M         11    7         0 != V2_1
                     270M          6    6   F    -1  = W4_0
                     270M          4    5        -1 != W4_3
                     280M          4    2        -1 != W3_3
                     280M          9    3   F     1  = V4_2
                     280M          4    4   F     1 != W5_0
                     280M          5    1         0  = V3_1
 ! Time = 3375.36s, Average fail depth = 15, Memory usage = 1.3 GB
 !               Branches  Non-fixed    W       Branch decision
                     280M          5    8   F        -
                     280M          8    7        -1 != U3_0
                     280M          5    6   F     0  = V0_1
                     280M          4    5   F     1 != V4_3
                     290M          8    7   F    -1  = V1_2
                     290M          4    2         0  = U1_3
                     290M          8    3   F     0 != V2_2
                     290M          6    8        -1  = U5_1
                     290M          4    1   F     0  = U5_1
                     290M          4    4        -1  = W1_1
                     290M          6    6   F     1 != U4_3
                     290M          4    5   F     0  = U2_1
                     300M          7    3        -1  = V5_3
                     300M          5    2   F    -1 != W3_3
                     300M          5    8   F     0 != U4_1
                     300M          4    4   F     0  = U3_1
                     300M          5    1         0 != U3_1
                     300M         13    7   F    -1  = V4_0
                     300M          5    6         1  = U0_0
                     300M          4    5         0 != W4_3
 ! Time = 3707.97s, Average fail depth = 15, Memory usage = 1.5 GB
 !               Branches  Non-fixed    W       Branch decision
                     310M         12    3   F     1 != U4_2
                     310M          5    2         0  = W2_2
                     310M          5    8         1  = W1_2
                     310M          4    4   F     0  = W3_1
                     310M          5    1   F     1 != V4_0
                     310M          8    7        -1 != V3_1
                     310M          6    6   F     0  = V0_1
                     310M          4    5   F     1  = V2_3
                     320M         12    3         0 != W3_0
                     320M          4    2   F    -1  = W1_3
                     320M          5    8         1 != V4_0
                     320M          4    4         1 != V0_3
                     320M          9    7   F     1  = W0_2
                     320M          5    1   F    -1  = V3_3
                     320M          5    6   F    -1 != W1_1
                     320M          5    5   F    -1  = U4_3
                     330M          7    3   F    -1 != V3_1
                     330M          4    2   F    -1  = W0_1
                     330M         10    7         0 != U1_3
                     330M          5    8            -
 ! Time = 3979.35s, Average fail depth = 15, Memory usage = 1.5 GB
 !               Branches  Non-fixed    W       Branch decision
                     330M          5    1        -1 != V0_2
                     330M          4    4        -1 != V1_3
                     330M          6    6   F     1  = U5_0
                     330M          5    5   F     1  = V2_1
                     340M          7    3   F    -1  = U2_2
                     340M          4    2         0  = W4_2
                     340M          8    7         1 != U5_0
                     340M          5    8         1  = W0_3
                     340M          4    4         0 != U5_3
                     340M          7    1        -1  = V4_0
                     340M          4    6   F     1  = U0_1
                     340M          4    5        -1 != V2_2
                     350M          7    3   F    -1  = W3_2
                     350M          5    2        -1  = U1_3
                     350M          5    8        -1  = W0_0
                     350M          8    7         0  = W4_1
                     350M          4    4        -1 != V0_1
                     350M          5    1   F    -1  = W5_3
                     350M          5    6         0  = W1_3
                     350M          5    5         1  = V2_1
 ! Time = 4310.77s, Average fail depth = 15, Memory usage = 1.7 GB
 !               Branches  Non-fixed    W       Branch decision
                     360M         10    3   F    -1 != U3_2
                     360M          4    2   F     1  = W2_3
                     360M          4    8        -1  = U4_3
                     360M          7    7   F     0  = V2_1
                     360M          4    4   F    -1  = W4_0
                     360M          6    1        -1 != W0_3
                     360M          4    6         1  = W1_3
                     360M          4    5         0 != V4_2
                     370M          5    2         1 != U3_3
                     370M          7    3         1  = V1_1
                     370M          6    8   F    -1 != W0_0
                     370M         14    7        -1 != U0_1
                     370M          4    4         0  = U0_0
                     370M          6    1         0 != W1_0
                     370M          4    6   F    -1  = V5_2
                     370M          5    5   F     0  = U2_1
                     380M          7    7   F    -1 != U4_3
                     380M          8    3   F    -1  = V2_1
                     380M          5    2   F    -1  = U3_2
                     380M          5    8   F     0  = V0_2
 ! Time = 4584.20s, Average fail depth = 15, Memory usage = 1.7 GB
 !               Branches  Non-fixed    W       Branch decision
                     380M          4    4         0 != U4_3
                     380M          6    1        -1  = V1_3
                     380M          4    6   F     0  = W5_3
                     380M          5    5         1 != W2_1
                     390M         15    3        -1  = U0_1
                     390M          9    7        -1 != W1_2
                     390M          7    8   F     0  = U4_0
                     390M          5    2   F     1  = W2_2
                     390M          4    4   F     0  = V0_2
                     390M          6    1         1 != V4_1
                     390M          4    6        -1  = W0_0
                     390M          5    5   F    -1 != V0_2
                     400M          8    3        -1  = V4_3
                     400M         12    7   F     1  = V5_3
                     400M          4    2   F     0  = U5_1
                     400M          5    8   F    -1 != V4_3
                     400M          4    4   F    -1  = U1_0
                     400M          6    1   F     0 != U4_0
                     400M          5    6   F     1  = V0_1
                     400M          5    5         1 != V3_3
 ! Time = 4913.50s, Average fail depth = 15, Memory usage = 1.8 GB
 !               Branches  Non-fixed    W       Branch decision
                     410M          8    3   F    -1  = U2_1
                     410M          4    2         1  = U4_2
                     410M          8    7   F     1  = W0_2
                     410M          5    8         0  = W1_1
                     410M          4    4   F     0  = W3_1
                     410M          5    1   F     0 != U1_0
                     410M          5    6         0  = U0_0
                     410M          5    5   F     1 != V5_2
                     420M         11    3   F    -1  = V1_1
                     420M          6    8   F        -
                     420M          8    7   F    -1  = V2_2
                     420M          4    2   F    -1 != U1_2
                     420M          4    4   F    -1  = W5_3
                     420M          5    1   F     1  = U5_3
                     420M          6    6        -1  = V3_2
                     420M          5    5         1 != W1_1
                     430M         12    3         1 != V2_1
                     430M         15    7   F     0  = V3_2
                     430M          5    8   F    -1 != V2_3
                     430M          4    2   F    -1 != W1_2
 ! Time = 5192.06s, Average fail depth = 15, Memory usage = 1.9 GB
 !               Branches  Non-fixed    W       Branch decision
                     430M          4    1         1 != V0_2
                     430M          4    4   F     1  = W4_3
                     430M          5    6   F     0 != V0_2
                     430M          6    5   F    -1  = U1_0
                     440M         12    3         0  = V1_3
                     440M          8    7   F     1 != U5_0
                     440M          5    8   F     0  = U3_2
                     440M          4    2         1  = U4_3
                     440M          4    4   F     1  = V0_2
                     440M          6    1   F     0  = U5_0
                     440M          5    6   F    -1  = V4_2
                     440M          5    5   F    -1 != W5_1
                     450M          9    7        -1  = W2_3
                     450M         11    3   F    -1 != V2_1
                     450M          5    8         0 != V2_3
                     450M          4    2   F     0  = V5_1
                     450M          4    4        -1 != U3_3
                     450M          6    1   F    -1 != U4_0
                     450M          4    6         1  = U5_1
                     450M          5    5         0  = W4_2
 ! Time = 5507.71s, Average fail depth = 15, Memory usage = 2.0 GB
 !               Branches  Non-fixed    W       Branch decision
                     460M         15    3   F    -1  = V0_1
                     460M         12    7         1  = W3_2
                     460M          5    8            -
                     460M          5    2   F    -1 != W4_3
                     460M          4    4         0 != U4_1
                     460M          6    1        -1 != V3_1
                     460M          6    6   F     1 != V2_2
                     460M          5    5   F     0  = V0_2
                     470M          7    3         1 != W1_0
                     470M          9    7         1 != V2_1
                     470M          6    8            -
                     470M          5    2         0  = V3_2
                     470M          5    1   F     1 != U3_1
                     470M          4    4         1 != U1_3
                     470M          6    6   F    -1 != U4_1
                     470M          5    5        -1 != V3_2
                     480M          8    3        -1  = V4_3
                     480M          6    7   F     0  = U5_1
                     480M          5    2   F     1 != U3_3
                     480M          5    8            -
 ! Time = 5790.97s, Average fail depth = 15, Memory usage = 2.1 GB
 !               Branches  Non-fixed    W       Branch decision
                     480M          4    4   F     1  = V2_3
                     480M          5    1         0 != V0_1
                     480M          5    6         0  = W3_2
                     480M          5    5   F     1  = U0_2
                     490M         13    3   F     0  = V0_1
                     490M          5    2        -1 != W5_3
                     490M          5    8        -1  = U1_3
                     490M          6    7        -1 != U0_3
                     490M          4    4   F     0 != V4_2
                     490M          6    1   F     0  = V5_3
                     490M          5    6         0  = U1_1
                     490M          5    5        -1 != W5_0
                     500M         11    3   F    -1  = U2_2
                     500M         15    7   F    -1  = V3_1
                     500M          4    2         1 != U4_0
                     500M          5    8        -1  = U2_1
                     500M          4    4   F     1  = V3_2
                     500M          6    1   F     0 != W2_0
                     500M          6    6        -1  = W5_3
                     500M          5    5        -1 != V1_1
 ! Time = 6124.65s, Average fail depth = 15, Memory usage = 2.2 GB
 !               Branches  Non-fixed    W       Branch decision
                     510M          6    7        -1  = U2_3
                     510M         11    3   F     0  = U3_3
                     510M          5    2   F     1  = W0_1
                     510M          6    8        -1  = U5_2
                     510M          4    4         1 != U0_3
                     510M          5    1   F     1  = V5_3
                     510M          5    6   F     0  = W1_1
                     510M          6    5         1  = V2_3
                     520M          7    7   F    -1  = U4_0
                     520M          9    3         0 != V5_1
                     520M          4    2   F    -1 != U5_0
                     520M          5    8         1 != U4_0
                     520M          6    1         0 != W4_3
                     520M          4    4   F     0  = W1_3
                     520M          6    6         0 != V0_2
                     520M          4    5        -1 != U0_3
                     530M         12    7   F    -1 != V0_0
                     530M         13    3        -1 != V0_1
                     530M          4    2   F     1  = W1_2
                     530M          7    8   F     1  = U0_1
 ! Time = 6398.67s, Average fail depth = 15, Memory usage = 2.3 GB
 !               Branches  Non-fixed    W       Branch decision
                     530M          6    1         0  = V1_1
                     530M          4    4   F     1  = U1_3
                     530M          5    6         1  = V1_1
                     530M          5    5         1  = U4_0
                     540M          8    7   F     1  = W4_2
                     540M         12    3   F    -1  = W5_1
                     540M          4    2        -1  = V2_0
                     540M          5    8         0  = V5_1
                     540M          6    1   F    -1 != V2_1
                     540M          4    4         1 != V0_3
                     540M          6    6   F    -1 != W4_1
                     540M          5    5         0  = W5_1
                     550M          6    3        -1 != U4_3
                     550M          4    2         0  = W4_1
                     550M         12    7   F    -1 != W0_1
                     550M          5    8   F     0  = U4_3
                     550M          6    1         1 != V1_3
                     550M          4    4   F     1  = U0_3
                     550M          4    6   F    -1 != V0_3
                     560M          8    3         1 != U2_1
 ! Time = 6735.45s, Average fail depth = 15, Memory usage = 2.4 GB
 !               Branches  Non-fixed    W       Branch decision
                     550M          5    5        -1  = W5_3
                     560M          4    2        -1 != W2_3
                     560M          6    8   F     0  = V3_0
                     560M          6    7        -1  = W1_3
                     560M          6    1   F    -1  = V5_3
                     560M          4    4   F     1  = U0_3
                     560M          5    6        -1  = V4_3
                     560M          5    5         1 != U4_3
                     570M          7    3   F     1  = W1_1
                     570M          5    2         0 != U5_3
                     570M          5    8   F    -1 != W3_2
                     570M          6    7         0 != V1_1
                     570M          5    1         1 != W1_0
                     570M          4    4   F     0  = V2_2
                     570M          5    6   F     1  = W2_3
                     570M          5    5   F     1  = W2_3
                     580M          7    3         1 != U1_3
                     580M          4    2         0  = V0_1
                     580M          5    8            -
                     580M         15    7        -1  = V0_1
 ! Time = 7010.94s, Average fail depth = 15, Memory usage = 2.5 GB
 !               Branches  Non-fixed    W       Branch decision
                     580M          6    1   F     1  = U1_0
                     580M          4    4         1 != V5_3
                     580M          5    6   F     1  = W0_3
                     580M          6    5   F     0 != W2_0
                     590M          5    2   F    -1  = W0_1
                     590M          6    3   F     0  = V1_3
                     590M          7    8   F        -
                     590M         14    7   F     1  = U3_0
                     590M          5    1   F     1 != W2_0
                     590M          4    4   F    -1  = W2_3
submitit INFO (2023-04-30 21:21:12,351) - Job has timed out. Ran 119 minutes out of requested 121 minutes.
submitit WARNING (2023-04-30 21:21:12,351) - Caught signal SIGUSR2 on cpunode26: this job is timed-out.
submitit INFO (2023-04-30 21:21:12,351) - Not checkpointing nor requeuing since I am a slave (procid=3).
submitit WARNING (2023-04-30 21:21:12,350) - Bypassing signal SIGCONT
                     590M          5    6        -1  = V5_1
 ! ----------------------------------------------------------------------------
 ! Search terminated by limit, no solution found.
 ! ----------------------------------------------------------------------------
 ! Number of branches     : 4753733363
 ! Number of fails        : 2324527808
 ! Total memory usage     : 2.7 GB (2.7 GB CP Optimizer + 0.0 GB Concert)
 ! Time spent in solve    : 7200.07s (7200.07s engine + 0.00s extraction)
 ! Search speed (br. / s) : 660234.3
 ! ----------------------------------------------------------------------------
Unknown
Saving stats to: /h/30/pashootan/Matrix-Mult-CP/logs/2x2x2_6_Apr30_19:21:46/27537_3_stats.csv
submitit INFO (2023-04-30 21:21:50,164) - Job completed successfully
